155	32	4	80	
10	10	10	10

0	0	0	0	0	0	5	1	2	3	4	5
1	1	0	1	1	3	3	9	7	6
2	6	1	0	2	3	3	9	7	6
3	3	2	0	5	3	3	8	7	6
4	0	3	3	3	8	2	9	7
5	2	5	2	0	4	2	9	8
6	6	5	0	3	10	6	16	14	13	12	11	10
7	6	0	7	5	6	5	16	14	13	11	10
8	0	1	5	1	2	5	16	14	13	12	10
9	5	6	0	7	7	3	16	12	11
10	6	0	4	4	7	3	28	17	15
11	0	7	4	4	4	3	28	17	15
12	4	4	0	4	3	3	28	17	15
13	0	3	3	3	7	3	28	17	15
14	3	0	4	3	2	5	28	27	21	20	17
15	0	4	6	9	3	9	27	26	24	23	22	21	20	19	18
16	3	4	0	8	8	8	28	27	26	24	21	20	19	18
17	4	3	0	4	5	6	26	25	23	22	19	18
18	0	5	6	3	2	2	30	29
19	4	6	5	0	3	2	30	29
20	0	6	2	3	3	2	30	29
21	3	4	4	0	1	2	30	29
22	0	6	4	2	9	2	30	29
23	0	2	4	3	9	2	30	29
24	6	6	0	5	4	2	30	29
25	0	3	4	2	4	2	30	29
26	4	0	4	3	9	1	29
27	4	0	5	7	8	1	29
28	0	3	3	5	8	1	29
29	3	0	4	6	6	1	31
30	3	3	0	3	4	1	31
31	0	0	0	0	0	0
